\ENCODING=ISO-8859-1
\Problem name: 

Maximize
 obj: x1 + x2 + x3 + x4 + x5 + x6 + x7 + x8 + x9 + x10 + x11 + x12 + x13 + x14
      + x15 + x16 + x17 + x18 + x19 + x20 + x21 + x22 + x23 + x24 + x25 + x26
      + x27 + x28 + x29 + x30 + x31 + x32 + x33 + x34 + x35 + x36 + x37 + x38
      + x39 + x40 + x41 + x42 + x43 + x44 + x45 + x46 + x47 + x48 + x49 + x50
      + x51 + x52 + x53 + x54 + x55 + x56 + x57 + x58 + x59 + x60 + x61 + x62
      + x63 + x64 + x65 + x66 + x67 + x68 + x69 + x70 + x71 + x72 + x73 + x74
      + x75 + x76 + x77 + x78 + x79 + x80 + x81 + x82 + x83 + x84 + x85 + x86
      + x87 + x88 + x89 + x90 + x91 + x92 + x93 + x94 + x95 + x96 + x97 + x98
      + x99 + x100 + x101 + x102 + x103 + x104 + x105 + x106 + x107 + x108
      + x109 + x110 + x111 + x112 + x113 + x114 + x115 + x116 + x117 + x118
      + x119 + x120 + x121 + x122 + x123 + x124 + x125 + x126 + x127 + x128
      + x129 + x130 + x131 + x132 + x133 + x134 + x135 + x136 + x137 + x138
      + x139 + x140 + x141 + x142 + x143 + x144 + x145 + x146 + x147 + x148
      + x149 + x150 + x151 + x152 + x153 + x154 + x155 + x156 + x157 + x158
      + x159 + x160 + x161 + x162 + x163 + x164 + x165 + x166 + x167 + x168
      + x169 + x170 + x171 + x172 + x173 + x174 + x175 + x176 + x177 + x178
      + x179 + x180 + x181 + x182 + x183 + x184 + x185 + x186 + x187 + x188
      + x189 + x190 + x191 + x192 + x193 + x194 + x195 + x196 + x197 + x198
      + x199 + x200
Subject To
 clq1:    x94 + x123 <= 1
 clq2:    x84 + x116 + x129 <= 1
 clq3:    x32 + x83 + x95 <= 1
 clq4:    x59 + x75 + x93 <= 1
 clq5:    x42 + x49 + x172 <= 1
 clq6:    x15 + x61 + x120 <= 1
 clq7:    x85 + x151 + x168 + x189 <= 1
 clq8:    x32 + x44 <= 1
 clq9:    x19 + x143 <= 1
 clq10:   x6 + x83 + x120 <= 1
 clq11:   x8 + x168 <= 1
 clq12:   x98 + x114 + x174 <= 1
 clq13:   x4 + x78 + x132 <= 1
 clq14:   x114 + x140 <= 1
 clq15:   x29 + x70 <= 1
 clq16:   x17 + x80 + x99 <= 1
 clq17:   x24 + x110 <= 1
 clq18:   x18 + x121 <= 1
 clq19:   x10 + x28 + x104 <= 1
 clq20:   x29 + x32 + x83 <= 1
 clq21:   x76 + x88 <= 1
 clq22:   x9 + x127 + x137 <= 1
 clq23:   x48 + x123 + x136 <= 1
 clq24:   x7 + x42 + x49 <= 1
 clq25:   x16 + x42 + x111 <= 1
 clq26:   x7 + x31 + x154 <= 1
 clq27:   x25 + x65 + x151 <= 1
 clq28:   x4 + x132 + x194 <= 1
 clq29:   x18 + x93 + x101 <= 1
 clq30:   x37 + x150 <= 1
 clq31:   x8 + x19 + x135 <= 1
 clq32:   x24 + x71 + x166 + x191 <= 1
 clq33:   x27 + x89 + x188 <= 1
 clq34:   x24 + x142 + x194 <= 1
 clq35:   x93 + x185 + x200 <= 1
 clq36:   x193 + x196 <= 1
 clq37:   x73 + x105 <= 1
 clq38:   x56 + x141 + x184 <= 1
 clq39:   x6 + x61 + x165 <= 1
 clq40:   x5 + x43 + x97 <= 1
 clq41:   x44 + x193 <= 1
 clq42:   x45 + x136 + x190 <= 1
 clq43:   x14 + x173 + x184 <= 1
 clq44:   x35 + x46 <= 1
 clq45:   x23 + x108 + x187 <= 1
 clq46:   x160 + x181 <= 1
 clq47:   x5 + x107 + x164 + x190 <= 1
 clq48:   x161 + x176 <= 1
 clq49:   x7 + x167 <= 1
 clq50:   x173 + x179 + x191 <= 1
 clq51:   x142 + x171 + x194 <= 1
 clq52:   x38 + x55 + x156 <= 1
 clq53:   x59 + x76 + x99 <= 1
 clq54:   x28 + x151 + x176 <= 1
 clq55:   x86 + x166 <= 1
 clq56:   x33 + x48 + x192 <= 1
 clq57:   x125 + x133 + x152 <= 1
 clq58:   x29 + x77 + x158 <= 1
 clq59:   x173 + x178 + x179 <= 1
 clq60:   x26 + x196 <= 1
 clq61:   x104 + x166 + x199 <= 1
 clq62:   x15 + x43 + x122 <= 1
 clq63:   x21 + x26 + x146 <= 1
 clq64:   x14 + x25 + x70 <= 1
 clq65:   x14 + x25 + x147 <= 1
 clq66:   x45 + x81 + x103 <= 1
 clq67:   x8 + x58 <= 1
 clq68:   x125 + x152 + x153 <= 1
 clq69:   x85 + x168 + x197 <= 1
 clq70:   x8 + x94 <= 1
 clq71:   x8 + x104 + x199 <= 1
 clq72:   x2 + x69 + x148 <= 1
 clq73:   x104 + x188 + x199 <= 1
 clq74:   x6 + x16 + x42 <= 1
 clq75:   x71 + x96 + x101 <= 1
 clq76:   x6 + x145 <= 1
 clq77:   x99 + x148 + x169 <= 1
 clq78:   x72 + x102 + x177 <= 1
 clq79:   x92 + x131 + x181 <= 1
 clq80:   x42 + x51 + x73 + x111 <= 1
 clq81:   x22 + x56 + x141 <= 1
 clq82:   x69 + x104 + x148 <= 1
 clq83:   x1 + x22 + x173 + x178 <= 1
 clq84:   x43 + x149 + x187 <= 1
 clq85:   x28 + x105 + x143 <= 1
 clq86:   x6 + x189 <= 1
 clq87:   x10 + x86 + x175 <= 1
 clq88:   x128 + x170 + x198 <= 1
 clq89:   x59 + x93 + x109 <= 1
 clq90:   x39 + x47 + x68 <= 1
 clq91:   x43 + x161 + x187 <= 1
 clq92:   x45 + x79 + x190 <= 1
 clq93:   x69 + x104 + x118 + x188 <= 1
 clq94:   x47 + x95 + x102 <= 1
 clq95:   x154 + x185 + x200 <= 1
 clq96:   x34 + x105 + x157 <= 1
 clq97:   x27 + x96 + x168 <= 1
 clq98:   x33 + x39 + x68 <= 1
 clq99:   x15 + x73 + x97 <= 1
 clq100:  x22 + x79 + x178 + x197 <= 1
 clq101:  x61 + x65 + x144 <= 1
 clq102:  x106 + x140 + x163 <= 1
 clq103:  x59 + x89 + x119 <= 1
 clq104:  x38 + x65 + x151 <= 1
 clq105:  x19 + x82 + x108 <= 1
 clq106:  x60 + x61 + x106 + x185 <= 1
 clq107:  x63 + x78 + x118 <= 1
 clq108:  x91 + x130 + x137 <= 1
 clq109:  x14 + x47 + x196 <= 1
 clq110:  x9 + x52 + x89 <= 1
 clq111:  x14 + x41 + x60 <= 1
 clq112:  x50 + x157 + x166 <= 1
 clq113:  x12 + x51 + x113 <= 1
 clq114:  x142 + x153 <= 1
 clq115:  x1 + x83 + x120 <= 1
 clq116:  x65 + x142 <= 1
 clq117:  x51 + x169 + x179 <= 1
 clq118:  x29 + x31 + x77 <= 1
 clq119:  x61 + x87 <= 1
 clq120:  x27 + x43 <= 1
 clq121:  x151 + x153 + x200 <= 1
 clq122:  x58 + x172 + x196 <= 1
 clq123:  x71 + x79 + x184 <= 1
 clq124:  x130 + x157 <= 1
 clq125:  x98 + x156 + x166 <= 1
 clq126:  x39 + x65 + x151 <= 1
 clq127:  x38 + x86 + x151 <= 1
 clq128:  x14 + x41 + x160 <= 1
 clq129:  x15 + x94 + x155 <= 1
 clq130:  x31 + x82 <= 1
 clq131:  x3 + x189 <= 1
 clq132:  x95 + x127 + x137 <= 1
 clq133:  x49 + x140 + x162 <= 1
 clq134:  x14 + x114 + x196 <= 1
 clq135:  x88 + x120 + x174 <= 1
 clq136:  x9 + x181 + x187 <= 1
 clq137:  x60 + x185 + x193 <= 1
 clq138:  x54 + x128 + x170 <= 1
 clq139:  x31 + x36 + x138 <= 1
 clq140:  x34 + x113 + x181 <= 1
 clq141:  x34 + x42 + x181 <= 1
 clq142:  x2 + x24 + x120 <= 1
 clq143:  x105 + x131 + x157 <= 1
 clq144:  x125 + x169 + x199 <= 1
 clq145:  x11 + x138 <= 1
 clq146:  x37 + x185 + x186 <= 1
 clq147:  x61 + x72 + x168 <= 1
 clq148:  x17 + x103 <= 1
 clq149:  x43 + x145 + x198 <= 1
 clq150:  x66 + x78 + x199 <= 1
 clq151:  x27 + x168 + x179 <= 1
 clq152:  x162 + x171 <= 1
 clq153:  x66 + x138 + x158 <= 1
 clq154:  x59 + x174 + x178 <= 1
 clq155:  x28 + x41 + x105 <= 1
 clq156:  x61 + x118 <= 1
 clq157:  x64 + x87 + x153 <= 1
 clq158:  x16 + x117 <= 1
 clq159:  x4 + x120 + x167 <= 1
 clq160:  x36 + x59 + x159 <= 1
 clq161:  x48 + x61 + x123 <= 1
 clq162:  x90 + x185 <= 1
 clq163:  x143 + x177 <= 1
 clq164:  x12 + x55 + x59 + x147 <= 1
 clq165:  x33 + x35 + x167 <= 1
 clq166:  x8 + x69 + x104 <= 1
 clq167:  x5 + x43 + x114 <= 1
 clq168:  x113 + x121 + x153 <= 1
 clq169:  x58 + x146 + x176 <= 1
 clq170:  x2 + x84 + x159 <= 1
 clq171:  x92 + x167 <= 1
 clq172:  x38 + x127 + x144 <= 1
 clq173:  x84 + x100 + x166 <= 1
 clq174:  x28 + x122 + x165 <= 1
 clq175:  x17 + x135 + x156 <= 1
 clq176:  x25 + x193 <= 1
 clq177:  x134 + x170 + x194 <= 1
 clq178:  x37 + x51 + x178 <= 1
 clq179:  x32 + x63 + x172 <= 1
 clq180:  x46 + x71 + x111 <= 1
 clq181:  x59 + x108 + x144 <= 1
 clq182:  x88 + x125 + x135 <= 1
 clq183:  x83 + x95 + x111 <= 1
 clq184:  x178 + x192 <= 1
 clq185:  x1 + x23 + x108 <= 1
 clq186:  x76 + x161 <= 1
 clq187:  x29 + x109 + x189 <= 1
 clq188:  x18 + x51 + x134 <= 1
 clq189:  x46 + x103 <= 1
 clq190:  x48 + x115 + x183 <= 1
 clq191:  x141 + x149 + x162 <= 1
 clq192:  x29 + x100 + x136 <= 1
 clq193:  x52 + x117 <= 1
 clq194:  x53 + x127 + x144 <= 1
 clq195:  x13 + x18 <= 1
 clq196:  x128 + x156 + x169 <= 1
 clq197:  x90 + x102 <= 1
 clq198:  x28 + x48 + x192 <= 1
 clq199:  x187 + x197 <= 1
 clq200:  x1 + x4 + x117 + x120 <= 1
 clq201:  x8 + x52 + x99 <= 1
 clq202:  x19 + x41 <= 1
 clq203:  x83 + x133 + x194 <= 1
 clq204:  x23 + x28 + x72 <= 1
 clq205:  x100 + x132 <= 1
 clq206:  x93 + x149 <= 1
 clq207:  x67 + x82 + x137 <= 1
 clq208:  x128 + x168 + x189 <= 1
 clq209:  x5 + x182 <= 1
 clq210:  x21 + x156 + x185 <= 1
 clq211:  x23 + x100 <= 1
 clq212:  x72 + x145 + x200 <= 1
 clq213:  x55 + x59 + x138 <= 1
 clq214:  x32 + x82 + x177 <= 1
 clq215:  x169 + x182 <= 1
 clq216:  x10 + x101 + x178 <= 1
 clq217:  x20 + x50 + x162 <= 1
 clq218:  x6 + x30 + x173 <= 1
 clq219:  x6 + x31 + x149 <= 1
 clq220:  x1 + x102 + x153 <= 1
 clq221:  x40 + x56 + x173 + x184 <= 1
 clq222:  x14 + x154 + x184 <= 1
 clq223:  x142 + x193 <= 1
 clq224:  x45 + x79 + x196 <= 1
 clq225:  x66 + x90 + x158 <= 1
 clq226:  x15 + x170 + x194 <= 1
 clq227:  x1 + x110 + x154 <= 1
 clq228:  x18 + x98 + x174 <= 1
 clq229:  x39 + x139 <= 1
 clq230:  x51 + x86 + x169 <= 1
 clq231:  x57 + x99 + x169 <= 1
 clq232:  x91 + x146 + x193 <= 1
 clq233:  x35 + x65 <= 1
 clq234:  x88 + x140 + x197 <= 1
 clq235:  x37 + x133 <= 1
 clq236:  x11 + x24 + x57 <= 1
 clq237:  x6 + x74 + x120 <= 1
 clq238:  x25 + x135 <= 1
 clq239:  x25 + x92 + x110 <= 1
 clq240:  x79 + x87 + x150 <= 1
 clq241:  x24 + x57 + x173 <= 1
 clq242:  x38 + x43 + x156 <= 1
 clq243:  x87 + x126 + x195 <= 1
 clq244:  x47 + x51 <= 1
 clq245:  x20 + x46 + x54 <= 1
 clq246:  x80 + x109 <= 1
 clq247:  x60 + x106 + x140 + x172 <= 1
 clq248:  x64 + x67 + x78 <= 1
 clq249:  x7 + x9 <= 1
 clq250:  x22 + x35 <= 1
 clq251:  x46 + x71 + x91 <= 1
 clq252:  x28 + x42 + x87 + x192 <= 1
 clq253:  x4 + x103 + x132 <= 1
 clq254:  x78 + x95 + x132 <= 1
 clq255:  x32 + x159 + x185 <= 1
 clq256:  x148 + x161 <= 1
 clq257:  x131 + x171 <= 1
 clq258:  x4 + x172 + x186 <= 1
 clq259:  x20 + x125 <= 1
 clq260:  x86 + x96 + x122 <= 1
 clq261:  x74 + x78 <= 1
 clq262:  x70 + x155 + x181 <= 1
 clq263:  x191 + x193 <= 1
 clq264:  x39 + x83 + x123 <= 1
 clq265:  x11 + x162 <= 1
 clq266:  x144 + x167 <= 1
 clq267:  x25 + x83 + x102 <= 1
 clq268:  x39 + x47 + x126 <= 1
 clq269:  x52 + x105 + x123 <= 1
 clq270:  x20 + x26 + x50 <= 1
 clq271:  x104 + x124 + x130 <= 1
 clq272:  x32 + x91 + x148 + x169 <= 1
 clq273:  x23 + x115 + x126 <= 1
 clq274:  x127 + x154 + x200 <= 1
 clq275:  x3 + x93 + x127 <= 1
 clq276:  x50 + x134 + x165 <= 1
 clq277:  x98 + x165 <= 1
 clq278:  x16 + x106 + x151 + x176 <= 1
 clq279:  x66 + x76 <= 1
 clq280:  x53 + x78 + x132 <= 1
 clq281:  x49 + x69 + x172 <= 1
 clq282:  x25 + x62 <= 1
 clq283:  x44 + x92 <= 1
 clq284:  x17 + x112 + x194 <= 1
 clq285:  x61 + x65 + x168 <= 1
 clq286:  x100 + x138 <= 1
 clq287:  x31 + x128 + x136 <= 1
 clq288:  x36 + x37 + x186 <= 1
 clq289:  x47 + x96 + x101 <= 1
 clq290:  x48 + x73 + x191 <= 1
 clq291:  x38 + x192 <= 1
 clq292:  x8 + x52 + x200 <= 1
 clq293:  x45 + x136 + x180 <= 1
 clq294:  x57 + x149 + x159 <= 1
 clq295:  x40 + x117 + x140 + x164 <= 1
 clq296:  x27 + x89 + x168 <= 1
 clq297:  x13 + x78 <= 1
 clq298:  x63 + x68 + x121 <= 1
 clq299:  x2 + x20 + x149 <= 1
 clq300:  x32 + x63 + x76 <= 1
 clq301:  x45 + x119 <= 1
 clq302:  x90 + x123 + x195 <= 1
 clq303:  x3 + x27 + x159 <= 1
 clq304:  x63 + x173 + x179 <= 1
 clq305:  x10 + x45 + x129 <= 1
 clq306:  x40 + x62 + x63 <= 1
 clq307:  x72 + x88 + x168 <= 1
 clq308:  x31 + x42 + x80 <= 1
 clq309:  x22 + x118 <= 1
 clq310:  x32 + x84 + x163 <= 1
 clq311:  x24 + x71 + x158 <= 1
 clq312:  x59 + x75 + x103 <= 1
 clq313:  x134 + x141 + x194 <= 1
 clq314:  x38 + x119 + x177 <= 1
 clq315:  x41 + x160 + x168 <= 1
 clq316:  x20 + x27 + x96 <= 1
 clq317:  x88 + x194 <= 1
 clq318:  x56 + x138 <= 1
 clq319:  x7 + x31 + x48 <= 1
 clq320:  x61 + x91 + x169 <= 1
 clq321:  x64 + x94 + x139 + x155 <= 1
 clq322:  x2 + x39 + x126 <= 1
 clq323:  x4 + x117 + x164 <= 1
 clq324:  x54 + x170 + x196 <= 1
 clq325:  x36 + x67 + x196 <= 1
 clq326:  x12 + x143 <= 1
 clq327:  x18 + x100 + x166 <= 1
 clq328:  x51 + x113 + x179 <= 1
 clq329:  x10 + x38 + x86 <= 1
 clq330:  x23 + x44 + x106 <= 1
 clq331:  x5 + x113 + x164 <= 1
 clq332:  x68 + x81 <= 1
 clq333:  x24 + x186 <= 1
 clq334:  x55 + x134 + x161 <= 1
 clq335:  x19 + x46 + x108 <= 1
 clq336:  x50 + x57 + x120 <= 1
 clq337:  x16 + x48 <= 1
 clq338:  x71 + x167 + x195 <= 1
 clq339:  x73 + x197 <= 1
 clq340:  x28 + x91 + x105 <= 1
 clq341:  x136 + x180 + x184 <= 1
 clq342:  x58 + x103 + x146 <= 1
 clq343:  x59 + x76 + x109 <= 1
 clq344:  x40 + x92 + x117 + x164 <= 1
 clq345:  x68 + x99 + x121 <= 1
 clq346:  x13 + x15 + x97 <= 1
 clq347:  x55 + x198 <= 1
 clq348:  x93 + x180 <= 1
 clq349:  x1 + x153 + x172 <= 1
 clq350:  x32 + x83 + x177 <= 1
 clq351:  x94 + x171 <= 1
 clq352:  x118 + x174 + x186 <= 1
 clq353:  x47 + x145 + x198 <= 1
 clq354:  x30 + x94 + x167 <= 1
 clq355:  x14 + x75 + x121 <= 1
 clq356:  x4 + x84 <= 1
 clq357:  x62 + x123 + x158 <= 1
 clq358:  x20 + x50 + x157 <= 1
 clq359:  x62 + x166 <= 1
 clq360:  x144 + x171 <= 1
 clq361:  x131 + x136 + x164 <= 1
 clq362:  x13 + x99 + x136 <= 1
 clq363:  x81 + x152 <= 1
 clq364:  x83 + x85 + x103 <= 1
 clq365:  x35 + x36 + x153 <= 1
 clq366:  x140 + x143 + x162 <= 1
 clq367:  x80 + x137 + x151 <= 1
 clq368:  x65 + x67 + x196 <= 1
 clq369:  x38 + x86 + x96 + x119 <= 1
 clq370:  x30 + x47 + x173 <= 1
 clq371:  x21 + x40 + x198 <= 1
 clq372:  x54 + x60 + x170 <= 1
 clq373:  x64 + x164 + x190 <= 1
 clq374:  x58 + x64 + x117 + x164 <= 1
 clq375:  x13 + x22 + x97 <= 1
 clq376:  x61 + x103 <= 1
 clq377:  x14 + x114 + x119 <= 1
 clq378:  x87 + x93 <= 1
 clq379:  x34 + x52 + x100 <= 1
 clq380:  x57 + x124 + x149 <= 1
 clq381:  x34 + x112 + x127 <= 1
 clq382:  x23 + x72 + x126 <= 1
 clq383:  x28 + x60 + x152 <= 1
 clq384:  x82 + x114 <= 1
 clq385:  x33 + x189 <= 1
 clq386:  x60 + x140 + x180 <= 1
 clq387:  x27 + x71 + x96 <= 1
 clq388:  x61 + x117 + x139 <= 1
 clq389:  x34 + x42 + x74 <= 1
 clq390:  x16 + x77 + x131 <= 1
 clq391:  x27 + x141 + x166 <= 1
 clq392:  x7 + x42 + x74 <= 1
 clq393:  x13 + x22 + x130 <= 1
 clq394:  x108 + x122 <= 1
 clq395:  x85 + x196 <= 1
 clq396:  x112 + x125 + x199 <= 1
 clq397:  x61 + x169 + x199 <= 1
 clq398:  x40 + x61 + x117 <= 1
 clq399:  x27 + x96 + x120 <= 1
 clq400:  x139 + x158 + x193 <= 1
 clq401:  x15 + x125 + x169 <= 1
 clq402:  x59 + x99 + x138 <= 1
 clq403:  x53 + x198 <= 1
 clq404:  x2 + x126 + x149 + x195 <= 1
 clq405:  x28 + x103 <= 1
 clq406:  x26 + x50 + x126 <= 1
 clq407:  x28 + x89 + x129 <= 1
 clq408:  x24 + x59 + x115 <= 1
 clq409:  x16 + x101 <= 1
 clq410:  x55 + x147 + x161 <= 1
 clq411:  x156 + x167 + x185 <= 1
 clq412:  x77 + x131 + x145 <= 1
 clq413:  x18 + x28 + x96 <= 1
 clq414:  x75 + x93 + x165 <= 1
 clq415:  x78 + x152 <= 1
 clq416:  x11 + x118 <= 1
 clq417:  x1 + x22 + x178 + x197 <= 1
 clq418:  x43 + x87 + x97 <= 1
 clq419:  x2 + x34 <= 1
 clq420:  x42 + x73 + x175 <= 1
 clq421:  x8 + x175 + x182 <= 1
 clq422:  x114 + x148 <= 1
 clq423:  x67 + x78 + x123 <= 1
 clq424:  x18 + x93 + x112 <= 1
 clq425:  x50 + x116 + x126 <= 1
 clq426:  x23 + x86 + x127 <= 1
 clq427:  x6 + x144 + x149 <= 1
 clq428:  x118 + x182 <= 1
 clq429:  x3 + x120 + x130 <= 1
 clq430:  x29 + x83 + x109 <= 1
 clq431:  x6 + x193 <= 1
 clq432:  x7 + x49 + x141 <= 1
 clq433:  x33 + x39 + x192 <= 1
 clq434:  x63 + x108 + x186 <= 1
 clq435:  x10 + x21 + x40 <= 1
 clq436:  x129 + x179 <= 1
 clq437:  x20 + x30 + x167 <= 1
 clq438:  x14 + x98 + x156 <= 1
 clq439:  x35 + x96 <= 1
 clq440:  x12 + x48 + x61 <= 1
 clq441:  x21 + x132 + x185 <= 1
 clq442:  x27 + x96 + x186 <= 1
 clq443:  x22 + x97 + x120 <= 1
 clq444:  x18 + x60 + x106 + x195 <= 1
 clq445:  x11 + x89 <= 1
 clq446:  x44 + x64 <= 1
 clq447:  x27 + x152 <= 1
 clq448:  x7 + x51 + x178 <= 1
 clq449:  x89 + x98 + x157 <= 1
 clq450:  x5 + x7 + x164 <= 1
 clq451:  x52 + x156 + x181 <= 1
 clq452:  x45 + x79 + x95 <= 1
 clq453:  x71 + x117 <= 1
 clq454:  x20 + x28 + x91 <= 1
 clq455:  x155 + x191 <= 1
 clq456:  x39 + x123 + x159 <= 1
 clq457:  x66 + x147 <= 1
 clq458:  x7 + x110 + x154 <= 1
 clq459:  x24 + x53 + x143 <= 1
 clq460:  x47 + x95 + x107 <= 1
 clq461:  x1 + x156 + x193 <= 1
 clq462:  x18 + x83 + x194 <= 1
 clq463:  x66 + x174 + x186 <= 1
 clq464:  x43 + x51 + x122 <= 1
 clq465:  x145 + x172 + x196 <= 1
 clq466:  x64 + x153 + x200 <= 1
 clq467:  x34 + x128 + x189 <= 1
 clq468:  x28 + x36 + x192 <= 1
 clq469:  x46 + x175 <= 1
 clq470:  x13 + x139 <= 1
 clq471:  x9 + x127 + x134 <= 1
 clq472:  x67 + x91 + x137 <= 1
 clq473:  x56 + x141 + x172 <= 1
 clq474:  x160 + x167 + x191 <= 1
 clq475:  x34 + x52 + x110 <= 1
 clq476:  x10 + x145 <= 1
 clq477:  x43 + x124 + x183 <= 1
 clq478:  x16 + x38 + x151 <= 1
 clq479:  x91 + x148 + x156 + x169 <= 1
 clq480:  x64 + x67 + x87 <= 1
 clq481:  x138 + x140 + x163 <= 1
 clq482:  x10 + x90 + x199 <= 1
 clq483:  x18 + x95 + x195 <= 1
 clq484:  x3 + x120 + x146 <= 1
 clq485:  x62 + x115 + x178 <= 1
 clq486:  x6 + x42 + x144 <= 1
 clq487:  x97 + x140 + x176 <= 1
 clq488:  x21 + x68 + x102 <= 1
 clq489:  x17 + x140 + x164 + x180 <= 1
 clq490:  x12 + x110 <= 1
 clq491:  x60 + x116 <= 1
 clq492:  x28 + x152 + x192 <= 1
 clq493:  x79 + x170 + x196 <= 1
 clq494:  x46 + x56 + x111 <= 1
 clq495:  x72 + x102 + x153 + x163 <= 1
 clq496:  x93 + x117 <= 1
 clq497:  x73 + x128 + x191 <= 1
 clq498:  x18 + x60 + x145 <= 1
 clq499:  x71 + x91 + x176 + x195 <= 1
 clq500:  x5 + x114 + x190 <= 1
 clq501:  x3 + x80 <= 1
 clq502:  x13 + x107 <= 1
 clq503:  x60 + x154 + x170 + x185 <= 1
 clq504:  x54 + x74 + x170 <= 1
 clq505:  x11 + x112 <= 1
 clq506:  x44 + x98 + x157 <= 1
 clq507:  x21 + x102 + x183 <= 1
 clq508:  x142 + x176 <= 1
 clq509:  x37 + x67 + x143 <= 1
 clq510:  x1 + x31 + x154 <= 1
 clq511:  x46 + x199 <= 1
 clq512:  x49 + x106 + x140 + x172 <= 1
 clq513:  x52 + x96 + x101 <= 1
 clq514:  x78 + x88 <= 1
 clq515:  x26 + x173 + x183 <= 1
 clq516:  x18 + x21 + x51 <= 1
 clq517:  x18 + x174 + x191 <= 1
 clq518:  x47 + x125 <= 1
 clq519:  x46 + x71 + x113 <= 1
 clq520:  x49 + x93 + x127 <= 1
 clq521:  x2 + x97 + x159 <= 1
 clq522:  x120 + x171 <= 1
 clq523:  x23 + x154 + x187 <= 1
 clq524:  x36 + x59 + x138 <= 1
 clq525:  x20 + x114 + x142 <= 1
 clq526:  x56 + x173 + x179 <= 1
 clq527:  x28 + x152 + x189 <= 1
 clq528:  x108 + x128 + x136 <= 1
 clq529:  x2 + x149 + x187 <= 1
 clq530:  x1 + x83 + x156 <= 1
 clq531:  x65 + x79 + x196 <= 1
 clq532:  x36 + x113 + x186 <= 1
 clq533:  x40 + x158 + x193 <= 1
 clq534:  x40 + x88 + x198 <= 1
 clq535:  x52 + x197 + x200 <= 1
 clq536:  x42 + x118 <= 1
 clq537:  x71 + x114 + x195 <= 1
 clq538:  x26 + x50 + x200 <= 1
 clq539:  x15 + x61 + x133 <= 1
 clq540:  x38 + x105 <= 1
 clq541:  x97 + x109 <= 1
 clq542:  x39 + x159 + x185 <= 1
 clq543:  x28 + x87 + x89 <= 1
 clq544:  x32 + x178 <= 1
 clq545:  x22 + x67 + x81 <= 1
 clq546:  x31 + x111 + x126 <= 1
 clq547:  x61 + x105 + x123 <= 1
 clq548:  x88 + x120 + x130 <= 1
 clq549:  x95 + x165 + x195 <= 1
 clq550:  x86 + x198 <= 1
 clq551:  x15 + x17 + x194 <= 1
 clq552:  x130 + x133 <= 1
 clq553:  x123 + x140 + x143 <= 1
 clq554:  x132 + x161 <= 1
 clq555:  x41 + x127 + x134 <= 1
 clq556:  x32 + x84 + x169 <= 1
 clq557:  x54 + x95 + x131 <= 1
 clq558:  x73 + x97 + x144 <= 1
 clq559:  x1 + x5 + x117 <= 1
 clq560:  x138 + x158 + x193 <= 1
 clq561:  x7 + x15 + x133 <= 1
 clq562:  x92 + x168 <= 1
 clq563:  x1 + x4 + x172 <= 1
 clq564:  x111 + x187 <= 1
 clq565:  x45 + x192 <= 1
 clq566:  x60 + x106 + x176 + x195 <= 1
 clq567:  x83 + x120 + x123 <= 1
 clq568:  x59 + x64 + x178 <= 1
 clq569:  x89 + x135 + x157 <= 1
 clq570:  x58 + x92 + x164 + x198 <= 1
 clq571:  x122 + x145 + x192 <= 1
 clq572:  x24 + x41 + x157 <= 1
 clq573:  x39 + x156 + x169 <= 1
 clq574:  x25 + x108 + x110 <= 1
 clq575:  x9 + x28 + x89 <= 1
 clq576:  x56 + x116 + x126 <= 1
 clq577:  x35 + x109 + x167 <= 1
 clq578:  x118 + x131 + x174 <= 1
 clq579:  x14 + x127 + x154 <= 1
 clq580:  x36 + x59 + x154 <= 1
 clq581:  x59 + x115 + x178 <= 1
 clq582:  x107 + x149 + x153 <= 1
 clq583:  x68 + x102 + x157 <= 1
 clq584:  x99 + x148 + x181 <= 1
 clq585:  x75 + x100 <= 1
 clq586:  x22 + x128 <= 1
 clq587:  x15 + x69 + x155 <= 1
 clq588:  x104 + x120 + x130 <= 1
 clq589:  x62 + x69 + x132 <= 1
 clq590:  x51 + x122 + x134 <= 1
 clq591:  x161 + x182 <= 1
 clq592:  x54 + x88 + x140 <= 1
 clq593:  x38 + x86 + x127 <= 1
 clq594:  x73 + x166 + x191 <= 1
 clq595:  x87 + x92 <= 1
 clq596:  x90 + x197 <= 1
 clq597:  x76 + x94 <= 1
 clq598:  x49 + x93 + x101 <= 1
 clq599:  x110 + x149 + x195 <= 1
 clq600:  x78 + x115 <= 1
 clq601:  x49 + x89 + x91 <= 1
 clq602:  x88 + x140 + x163 <= 1
 clq603:  x49 + x108 + x127 + x136 <= 1
 clq604:  x29 + x124 <= 1
 clq605:  x60 + x183 <= 1
 clq606:  x36 + x139 <= 1
 clq607:  x140 + x163 + x191 <= 1
 clq608:  x81 + x83 + x103 <= 1
 clq609:  x164 + x188 <= 1
 clq610:  x26 + x122 + x181 <= 1
 clq611:  x90 + x116 <= 1
 clq612:  x145 + x188 <= 1
 clq613:  x127 + x152 <= 1
 clq614:  x24 + x145 <= 1
 clq615:  x30 + x154 + x200 <= 1
 clq616:  x85 + x129 + x197 <= 1
 clq617:  x80 + x137 + x155 <= 1
 clq618:  x125 + x136 + x193 <= 1
 clq619:  x50 + x188 <= 1
 clq620:  x64 + x134 + x161 <= 1
 clq621:  x84 + x200 <= 1
 clq622:  x5 + x170 + x198 <= 1
 clq623:  x32 + x53 <= 1
 clq624:  x74 + x86 + x96 <= 1
 clq625:  x36 + x132 + x153 <= 1
 clq626:  x44 + x118 <= 1
 clq627:  x86 + x121 + x169 <= 1
 clq628:  x18 + x108 + x191 <= 1
 clq629:  x17 + x158 + x164 <= 1
 clq630:  x21 + x24 + x41 <= 1
 clq631:  x30 + x99 + x181 <= 1
 clq632:  x81 + x92 <= 1
 clq633:  x21 + x27 <= 1
 clq634:  x3 + x27 + x136 <= 1
 clq635:  x82 + x156 + x167 <= 1
 clq636:  x142 + x147 + x164 <= 1
 clq637:  x25 + x92 + x117 <= 1
 clq638:  x70 + x134 <= 1
 clq639:  x19 + x79 + x148 <= 1
 clq640:  x9 + x61 + x106 <= 1
 clq641:  x6 + x55 <= 1
 clq642:  x123 + x143 + x159 <= 1
 clq643:  x157 + x185 <= 1
 clq644:  x50 + x59 + x178 <= 1
 clq645:  x81 + x145 <= 1
 clq646:  x132 + x189 <= 1
 clq647:  x115 + x121 + x153 <= 1
 clq648:  x21 + x150 + x156 <= 1
 clq649:  x22 + x30 + x79 <= 1
 clq650:  x34 + x76 + x192 <= 1
 clq651:  x92 + x105 + x131 <= 1
 clq652:  x39 + x164 + x198 <= 1
 clq653:  x17 + x48 + x191 <= 1
 clq654:  x59 + x75 + x144 <= 1
 clq655:  x12 + x61 + x113 <= 1
 clq656:  x14 + x25 + x114 <= 1
 clq657:  x59 + x144 + x174 <= 1
 clq658:  x121 + x137 <= 1
 clq659:  x81 + x179 <= 1
 clq660:  x53 + x62 + x132 <= 1
 clq661:  x22 + x67 + x173 <= 1
 clq662:  x112 + x130 + x165 <= 1
 clq663:  x55 + x93 + x133 <= 1
 clq664:  x68 + x105 + x157 <= 1
 clq665:  x42 + x66 <= 1
 clq666:  x147 + x164 + x180 <= 1
 clq667:  x84 + x189 <= 1
 clq668:  x60 + x145 + x172 <= 1
 clq669:  x52 + x152 + x156 <= 1
 clq670:  x113 + x121 + x141 <= 1
 clq671:  x34 + x42 + x80 + x192 <= 1
 clq672:  x61 + x105 + x139 <= 1
 clq673:  x10 + x40 + x158 <= 1
 clq674:  x100 + x135 + x159 <= 1
 clq675:  x84 + x155 <= 1
 clq676:  x76 + x190 <= 1
 clq677:  x95 + x167 + x195 <= 1
 clq678:  x160 + x182 <= 1
 clq679:  x61 + x72 + x169 <= 1
 clq680:  x141 + x200 <= 1
 clq681:  x4 + x179 <= 1
 clq682:  x185 + x193 + x200 <= 1
 clq683:  x32 + x89 + x177 <= 1
 clq684:  x56 + x116 + x173 <= 1
 clq685:  x45 + x129 + x146 <= 1
 clq686:  x19 + x50 + x116 <= 1
 clq687:  x82 + x137 + x150 <= 1
 clq688:  x145 + x148 <= 1
 clq689:  x35 + x109 + x134 <= 1
 clq690:  x56 + x105 + x184 <= 1
 clq691:  x39 + x65 + x162 <= 1
 clq692:  x53 + x72 <= 1
 clq693:  x55 + x156 + x183 <= 1
 clq694:  x10 + x85 + x124 <= 1
 clq695:  x35 + x109 + x174 <= 1
 clq696:  x88 + x197 + x200 <= 1
 clq697:  x38 + x58 <= 1
 clq698:  x45 + x53 <= 1
 clq699:  x57 + x119 <= 1
 clq700:  x49 + x89 + x115 <= 1
 clq701:  x30 + x102 + x177 <= 1
 clq702:  x115 + x122 + x165 <= 1
 clq703:  x71 + x97 + x158 <= 1
 clq704:  x23 + x40 + x184 <= 1
 clq705:  x21 + x40 + x61 <= 1
 clq706:  x60 + x70 + x140 + x172 <= 1
 clq707:  x97 + x135 + x152 <= 1
 clq708:  x41 + x80 + x132 <= 1
 clq709:  x115 + x126 + x131 <= 1
 clq710:  x9 + x17 + x53 <= 1
 clq711:  x40 + x88 + x140 <= 1
 clq712:  x23 + x35 + x106 <= 1
 clq713:  x12 + x26 + x59 <= 1
 clq714:  x15 + x36 + x131 <= 1
 clq715:  x3 + x16 <= 1
 clq716:  x69 + x74 + x148 <= 1
 clq717:  x23 + x28 + x87 + x192 <= 1
 clq718:  x5 + x163 <= 1
 clq719:  x16 + x69 <= 1
 clq720:  x59 + x73 + x144 <= 1
 clq721:  x139 + x163 <= 1
 clq722:  x112 + x127 + x196 <= 1
 clq723:  x107 + x122 <= 1
 clq724:  x128 + x136 + x184 <= 1
 clq725:  x91 + x156 + x193 <= 1
 clq726:  x40 + x63 + x173 <= 1
 clq727:  x109 + x168 + x189 <= 1
 clq728:  x22 + x71 + x97 <= 1
 clq729:  x72 + x153 + x175 <= 1
 clq730:  x42 + x49 + x177 <= 1
 clq731:  x19 + x38 <= 1
 clq732:  x70 + x157 <= 1
 clq733:  x1 + x23 + x154 <= 1
 clq734:  x105 + x150 <= 1
 clq735:  x15 + x17 + x135 <= 1
 clq736:  x15 + x132 + x162 <= 1
 clq737:  x108 + x140 + x191 <= 1
 clq738:  x82 + x188 <= 1
 clq739:  x52 + x63 + x89 <= 1
 clq740:  x52 + x99 + x124 <= 1
 clq741:  x4 + x8 <= 1
 clq742:  x1 + x31 + x126 <= 1
 clq743:  x147 + x161 + x187 <= 1
 clq744:  x80 + x137 + x175 <= 1
 clq745:  x61 + x124 <= 1
 clq746:  x65 + x67 + x144 <= 1
 clq747:  x37 + x106 + x185 <= 1
 clq748:  x18 + x126 + x182 <= 1
 clq749:  x35 + x140 + x191 <= 1
 clq750:  x26 + x50 + x181 <= 1
 clq751:  x19 + x135 + x152 <= 1
 clq752:  x54 + x133 <= 1
 clq753:  x112 + x131 <= 1
 clq754:  x16 + x21 <= 1
 clq755:  x121 + x153 + x163 <= 1
 clq756:  x50 + x87 + x126 <= 1
 clq757:  x59 + x109 + x174 <= 1
 clq758:  x78 + x132 + x199 <= 1
 clq759:  x81 + x115 <= 1
 clq760:  x56 + x116 + x192 <= 1
 clq761:  x44 + x106 + x195 <= 1
 clq762:  x95 + x142 <= 1
 clq763:  x53 + x99 + x144 <= 1
 clq764:  x74 + x96 + x120 <= 1
 clq765:  x59 + x75 + x76 <= 1
 clq766:  x55 + x188 <= 1
 clq767:  x37 + x84 + x166 <= 1
 clq768:  x151 + x153 + x172 <= 1
 clq769:  x39 + x151 + x164 <= 1
 clq770:  x133 + x163 <= 1
 clq771:  x58 + x72 + x97 + x176 <= 1
 clq772:  x19 + x82 + x93 <= 1
 clq773:  x103 + x127 <= 1
 clq774:  x27 + x33 <= 1
 clq775:  x173 + x176 + x178 <= 1
 clq776:  x10 + x85 + x129 <= 1
 clq777:  x36 + x78 + x154 <= 1
 clq778:  x26 + x146 + x174 <= 1
 clq779:  x64 + x135 <= 1
 clq780:  x100 + x176 <= 1
 clq781:  x52 + x170 <= 1
 clq782:  x50 + x71 + x200 <= 1
 clq783:  x92 + x141 + x149 <= 1
 clq784:  x38 + x112 + x127 <= 1
 clq785:  x18 + x173 + x191 <= 1
 clq786:  x36 + x43 + x154 <= 1
 clq787:  x29 + x65 + x77 <= 1
 clq788:  x33 + x99 + x169 <= 1
 clq789:  x100 + x179 <= 1
 clq790:  x31 + x42 + x130 <= 1
 clq791:  x67 + x81 + x144 <= 1
 clq792:  x74 + x124 <= 1
 clq793:  x66 + x141 <= 1
 clq794:  x15 + x69 + x132 + x194 <= 1
 clq795:  x25 + x31 + x151 <= 1
 clq796:  x122 + x154 + x184 <= 1
 clq797:  x17 + x154 <= 1
 clq798:  x114 + x115 <= 1
 clq799:  x40 + x136 + x193 <= 1
 clq800:  x53 + x77 <= 1
 clq801:  x13 + x85 <= 1
 clq802:  x20 + x91 + x155 <= 1
 clq803:  x7 + x65 <= 1
 clq804:  x41 + x81 + x107 <= 1
 clq805:  x46 + x100 <= 1
 clq806:  x64 + x117 + x140 + x164 <= 1
 clq807:  x44 + x90 + x195 <= 1
 clq808:  x28 + x42 + x110 + x129 <= 1
 clq809:  x75 + x131 + x164 <= 1
 clq810:  x58 + x97 + x196 <= 1
 clq811:  x125 + x183 <= 1
 clq812:  x13 + x40 + x136 <= 1
 clq813:  x67 + x160 + x196 <= 1
 clq814:  x16 + x30 + x186 <= 1
 clq815:  x25 + x54 <= 1
 clq816:  x34 + x76 + x133 <= 1
 clq817:  x40 + x98 + x198 <= 1
 clq818:  x91 + x105 + x131 <= 1
 clq819:  x21 + x155 <= 1
 clq820:  x3 + x159 + x199 <= 1
 clq821:  x93 + x101 + x104 <= 1
 clq822:  x67 + x86 + x123 <= 1
 clq823:  x2 + x63 + x68 <= 1
 clq824:  x90 + x123 + x158 <= 1
 clq825:  x57 + x71 + x147 <= 1
 clq826:  x54 + x149 + x153 <= 1
 clq827:  x12 + x94 <= 1
 clq828:  x9 + x76 + x127 <= 1
 clq829:  x112 + x150 + x156 <= 1
 clq830:  x47 + x68 + x173 <= 1
 clq831:  x23 + x108 + x127 <= 1
 clq832:  x171 + x187 <= 1
 clq833:  x88 + x140 + x172 <= 1
 clq834:  x34 + x52 + x112 <= 1
 clq835:  x15 + x143 + x169 <= 1
 clq836:  x29 + x62 + x158 <= 1
 clq837:  x28 + x72 + x176 <= 1
 clq838:  x14 + x25 + x121 <= 1
 clq839:  x81 + x108 + x144 <= 1
 clq840:  x62 + x168 <= 1
 clq841:  x71 + x192 + x200 <= 1
 clq842:  x40 + x70 + x140 <= 1
 clq843:  x52 + x100 + x152 <= 1
 clq844:  x45 + x120 + x146 + x174 <= 1
 clq845:  x94 + x139 + x141 <= 1
 clq846:  x9 + x135 + x159 <= 1
 clq847:  x76 + x183 <= 1
 clq848:  x60 + x75 + x185 <= 1
 clq849:  x2 + x97 + x120 <= 1
 clq850:  x170 + x188 <= 1
 clq851:  x77 + x182 <= 1
 clq852:  x59 + x91 + x159 <= 1
 clq853:  x68 + x122 + x134 <= 1
 clq854:  x101 + x159 <= 1
 clq855:  x99 + x136 + x184 <= 1
 clq856:  x17 + x22 + x67 <= 1
 clq857:  x55 + x150 + x156 <= 1
 clq858:  x33 + x52 + x99 <= 1
 clq859:  x115 + x143 + x153 <= 1
 clq860:  x36 + x43 + x124 <= 1
 clq861:  x4 + x67 + x143 <= 1
 clq862:  x47 + x65 + x196 <= 1
 clq863:  x8 + x43 + x175 <= 1
 clq864:  x29 + x41 + x105 <= 1
 clq865:  x83 + x98 + x156 <= 1
 clq866:  x138 + x157 <= 1
 clq867:  x15 + x45 + x120 <= 1
 clq868:  x41 + x99 + x121 <= 1
 clq869:  x84 + x140 + x163 <= 1
 clq870:  x3 + x64 + x139 <= 1
 clq871:  x28 + x89 + x91 <= 1
 clq872:  x24 + x71 + x166 + x194 <= 1
 clq873:  x55 + x136 + x161 <= 1
 clq874:  x4 + x67 + x197 <= 1
 clq875:  x23 + x188 <= 1
 clq876:  x128 + x160 + x168 <= 1
 clq877:  x9 + x113 + x181 <= 1
 clq878:  x57 + x95 + x124 <= 1
 clq879:  x65 + x84 + x175 <= 1
 clq880:  x24 + x157 + x166 <= 1
 clq881:  x54 + x141 + x149 <= 1
 clq882:  x83 + x85 + x133 <= 1
 clq883:  x154 + x170 + x198 <= 1
 clq884:  x24 + x31 <= 1
 clq885:  x27 + x70 + x188 <= 1
 clq886:  x59 + x103 + x132 <= 1
 clq887:  x10 + x108 + x110 <= 1
 clq888:  x68 + x80 + x173 <= 1
 clq889:  x9 + x135 + x187 <= 1
 clq890:  x45 + x163 <= 1
 clq891:  x98 + x159 <= 1
 clq892:  x94 + x107 + x153 <= 1
 clq893:  x1 + x150 + x154 <= 1
 clq894:  x92 + x186 <= 1
 clq895:  x6 + x115 + x165 <= 1
 clq896:  x104 + x119 + x177 <= 1
 clq897:  x24 + x115 + x135 <= 1
 clq898:  x25 + x143 <= 1
 clq899:  x99 + x176 <= 1
 clq900:  x115 + x126 + x182 <= 1
 clq901:  x46 + x88 + x111 <= 1
 clq902:  x82 + x85 + x103 <= 1
 clq903:  x51 + x53 <= 1
 clq904:  x57 + x137 + x155 <= 1
 clq905:  x40 + x67 + x160 <= 1
 clq906:  x80 + x101 <= 1
 clq907:  x66 + x82 + x158 <= 1
 clq908:  x18 + x37 + x166 <= 1
 clq909:  x64 + x134 + x194 <= 1
 clq910:  x57 + x58 + x133 <= 1
 clq911:  x66 + x186 + x199 <= 1
 clq912:  x36 + x49 + x136 <= 1
 clq913:  x17 + x80 + x158 <= 1
 clq914:  x1 + x106 + x172 <= 1
 clq915:  x71 + x107 <= 1
 clq916:  x117 + x145 <= 1
 clq917:  x2 + x14 + x84 <= 1
 clq918:  x96 + x135 + x184 <= 1
 clq919:  x61 + x72 + x162 <= 1
 clq920:  x106 + x130 <= 1
 clq921:  x21 + x41 + x132 <= 1
 clq922:  x28 + x143 + x189 <= 1
 clq923:  x7 + x90 <= 1
 clq924:  x8 + x140 <= 1
 clq925:  x103 + x132 + x146 <= 1
 clq926:  x20 + x96 + x149 <= 1
 clq927:  x101 + x139 <= 1
 clq928:  x63 + x143 <= 1
 clq929:  x33 + x35 + x69 <= 1
 clq930:  x77 + x96 + x135 <= 1
 clq931:  x14 + x186 <= 1
 clq932:  x39 + x118 + x127 <= 1
 clq933:  x48 + x58 + x123 <= 1
 clq934:  x98 + x200 <= 1
 clq935:  x16 + x30 + x154 <= 1
 clq936:  x28 + x60 + x185 <= 1
 clq937:  x24 + x57 + x120 <= 1
 clq938:  x91 + x116 <= 1
 clq939:  x22 + x75 + x197 <= 1
 clq940:  x5 + x112 <= 1
 clq941:  x40 + x62 + x158 <= 1
 clq942:  x29 + x30 + x154 <= 1
 clq943:  x17 + x66 + x158 <= 1
 clq944:  x94 + x141 + x166 <= 1
 clq945:  x22 + x113 + x181 <= 1
 clq946:  x23 + x115 + x155 <= 1
 clq947:  x12 + x96 + x102 <= 1
 clq948:  x59 + x89 + x91 <= 1
 clq949:  x57 + x68 + x173 <= 1
 clq950:  x29 + x71 + x158 <= 1
 clq951:  x106 + x163 + x195 <= 1
 clq952:  x90 + x158 + x169 <= 1
 clq953:  x27 + x136 + x180 <= 1
 clq954:  x12 + x170 <= 1
 clq955:  x51 + x139 + x193 <= 1
 clq956:  x85 + x103 + x155 <= 1
 clq957:  x22 + x30 + x49 + x173 <= 1
 clq958:  x55 + x156 + x185 <= 1
 clq959:  x64 + x87 + x126 <= 1
 clq960:  x22 + x49 + x141 <= 1
 clq961:  x25 + x65 + x175 <= 1
 clq962:  x2 + x149 + x159 <= 1
 clq963:  x58 + x76 + x117 <= 1
 clq964:  x5 + x28 + x185 <= 1
 clq965:  x81 + x106 <= 1
 clq966:  x128 + x136 + x190 <= 1
 clq967:  x86 + x96 + x102 <= 1
 clq968:  x32 + x58 + x76 <= 1
 clq969:  x15 + x73 + x102 <= 1
 clq970:  x61 + x105 + x162 <= 1
 clq971:  x79 + x86 <= 1
 clq972:  x78 + x118 + x166 <= 1
 clq973:  x60 + x106 + x140 + x176 <= 1
 clq974:  x19 + x26 + x50 <= 1
 clq975:  x79 + x110 + x149 <= 1
 clq976:  x134 + x143 <= 1
 clq977:  x138 + x140 + x180 <= 1
 clq978:  x111 + x150 + x156 <= 1
 clq979:  x27 + x104 + x179 <= 1
 clq980:  x17 + x140 + x156 <= 1
 clq981:  x11 + x117 <= 1
 clq982:  x19 + x68 <= 1
 clq983:  x14 + x121 + x154 <= 1
 clq984:  x2 + x120 + x174 <= 1
 clq985:  x52 + x96 + x122 <= 1
 clq986:  x122 + x142 <= 1
 clq987:  x75 + x143 <= 1
 clq988:  x109 + x181 <= 1
 clq989:  x161 + x196 <= 1
 clq990:  x37 + x67 + x197 <= 1
 clq991:  x14 + x98 + x114 <= 1
 clq992:  x57 + x75 + x131 <= 1
 clq993:  x85 + x100 + x135 <= 1
 clq994:  x29 + x136 + x180 <= 1
 clq995:  x59 + x90 <= 1
 clq996:  x5 + x114 + x170 <= 1
 clq997:  x1 + x22 + x89 <= 1
 clq998:  x13 + x160 + x162 <= 1
 clq999:  x38 + x86 + x161 <= 1
 clq1000: x44 + x98 + x124 <= 1
 clq1001: x7 + x98 + x166 <= 1
 clq1002: x35 + x90 + x158 <= 1
 clq1003: x12 + x88 <= 1
 clq1004: x7 + x131 + x164 <= 1
 clq1005: x49 + x136 + x162 <= 1
 clq1006: x186 + x190 <= 1
 clq1007: x12 + x55 + x102 <= 1
 clq1008: x116 + x136 <= 1
 clq1009: x148 + x165 <= 1
 clq1010: x29 + x31 + x126 <= 1
 clq1011: x2 + x14 + x160 <= 1
 clq1012: x17 + x145 <= 1
 clq1013: x45 + x95 + x124 <= 1
 clq1014: x27 + x71 + x182 <= 1
 clq1015: x11 + x167 <= 1
 clq1016: x73 + x124 <= 1
 clq1017: x77 + x150 + x159 <= 1
 clq1018: x55 + x147 + x177 <= 1
 clq1019: x30 + x49 + x177 <= 1
 clq1020: x118 + x154 + x174 <= 1
 clq1021: x8 + x75 + x185 <= 1
 clq1022: x12 + x56 + x69 <= 1
 clq1023: x24 + x59 + x103 <= 1
 clq1024: x88 + x119 + x125 <= 1
 clq1025: x165 + x175 <= 1
 clq1026: x55 + x101 + x153 <= 1
 clq1027: x64 + x117 + x134 <= 1
 clq1028: x50 + x53 <= 1
 clq1029: x125 + x135 + x152 <= 1
 clq1030: x8 + x52 + x122 <= 1
 clq1031: x72 + x94 + x137 <= 1
 clq1032: x45 + x120 + x134 <= 1
 clq1033: x84 + x122 + x184 <= 1
 clq1034: x86 + x119 + x175 <= 1
 clq1035: x173 + x185 <= 1
 clq1036: x95 + x117 <= 1
 clq1037: x7 + x100 + x133 <= 1
 clq1038: x24 + x175 <= 1
 clq1039: x39 + x100 + x159 <= 1
 clq1040: x33 + x35 + x146 <= 1
 clq1041: x64 + x94 + x153 <= 1
 clq1042: x62 + x64 + x178 <= 1
 clq1043: x141 + x190 <= 1
 clq1044: x24 + x135 + x184 <= 1
 clq1045: x105 + x162 + x184 <= 1
 clq1046: x31 + x126 + x149 <= 1
 clq1047: x23 + x190 <= 1
 clq1048: x118 + x183 <= 1
 clq1049: x83 + x199 <= 1
 clq1050: x36 + x37 + x67 <= 1
 clq1051: x10 + x57 + x173 <= 1
 clq1052: x2 + x8 + x69 <= 1
 clq1053: x52 + x70 + x181 <= 1
 clq1054: x53 + x112 + x125 <= 1
 clq1055: x33 + x88 + x130 <= 1
 clq1056: x95 + x107 + x138 <= 1
 clq1057: x39 + x111 + x164 <= 1
 clq1058: x138 + x194 <= 1
 clq1059: x37 + x161 <= 1
 clq1060: x57 + x133 + x173 <= 1
 clq1061: x145 + x155 <= 1
 clq1062: x26 + x50 + x134 <= 1
 clq1063: x9 + x61 + x169 <= 1
 clq1064: x67 + x69 <= 1
 clq1065: x96 + x115 + x122 <= 1
 clq1066: x20 + x76 <= 1
 clq1067: x85 + x122 <= 1
 clq1068: x5 + x170 + x185 <= 1
 clq1069: x25 + x118 + x147 <= 1
 clq1070: x29 + x30 + x186 <= 1
 clq1071: x26 + x177 <= 1
 clq1072: x82 + x85 + x150 + x168 <= 1
 clq1073: x25 + x48 + x171 <= 1
 clq1074: x51 + x137 + x183 <= 1
 clq1075: x80 + x137 + x183 <= 1
 clq1076: x159 + x183 <= 1
 clq1077: x104 + x118 + x166 <= 1
 clq1078: x41 + x90 <= 1
 clq1079: x34 + x90 <= 1
 clq1080: x71 + x74 + x96 <= 1
 clq1081: x153 + x160 <= 1
 clq1082: x33 + x86 + x169 <= 1
Bounds
 0 <= x1 <= 1
 0 <= x2 <= 1
 0 <= x3 <= 1
 0 <= x4 <= 1
 0 <= x5 <= 1
 0 <= x6 <= 1
 0 <= x7 <= 1
 0 <= x8 <= 1
 0 <= x9 <= 1
 0 <= x10 <= 1
 0 <= x11 <= 1
 0 <= x12 <= 1
 0 <= x13 <= 1
 0 <= x14 <= 1
 0 <= x15 <= 1
 0 <= x16 <= 1
 0 <= x17 <= 1
 0 <= x18 <= 1
 0 <= x19 <= 1
 0 <= x20 <= 1
 0 <= x21 <= 1
 0 <= x22 <= 1
 0 <= x23 <= 1
 0 <= x24 <= 1
 0 <= x25 <= 1
 0 <= x26 <= 1
 0 <= x27 <= 1
 0 <= x28 <= 1
 0 <= x29 <= 1
 0 <= x30 <= 1
 0 <= x31 <= 1
 0 <= x32 <= 1
 0 <= x33 <= 1
 0 <= x34 <= 1
 0 <= x35 <= 1
 0 <= x36 <= 1
 0 <= x37 <= 1
 0 <= x38 <= 1
 0 <= x39 <= 1
 0 <= x40 <= 1
 0 <= x41 <= 1
 0 <= x42 <= 1
 0 <= x43 <= 1
 0 <= x44 <= 1
 0 <= x45 <= 1
 0 <= x46 <= 1
 0 <= x47 <= 1
 0 <= x48 <= 1
 0 <= x49 <= 1
 0 <= x50 <= 1
 0 <= x51 <= 1
 0 <= x52 <= 1
 0 <= x53 <= 1
 0 <= x54 <= 1
 0 <= x55 <= 1
 0 <= x56 <= 1
 0 <= x57 <= 1
 0 <= x58 <= 1
 0 <= x59 <= 1
 0 <= x60 <= 1
 0 <= x61 <= 1
 0 <= x62 <= 1
 0 <= x63 <= 1
 0 <= x64 <= 1
 0 <= x65 <= 1
 0 <= x66 <= 1
 0 <= x67 <= 1
 0 <= x68 <= 1
 0 <= x69 <= 1
 0 <= x70 <= 1
 0 <= x71 <= 1
 0 <= x72 <= 1
 0 <= x73 <= 1
 0 <= x74 <= 1
 0 <= x75 <= 1
 0 <= x76 <= 1
 0 <= x77 <= 1
 0 <= x78 <= 1
 0 <= x79 <= 1
 0 <= x80 <= 1
 0 <= x81 <= 1
 0 <= x82 <= 1
 0 <= x83 <= 1
 0 <= x84 <= 1
 0 <= x85 <= 1
 0 <= x86 <= 1
 0 <= x87 <= 1
 0 <= x88 <= 1
 0 <= x89 <= 1
 0 <= x90 <= 1
 0 <= x91 <= 1
 0 <= x92 <= 1
 0 <= x93 <= 1
 0 <= x94 <= 1
 0 <= x95 <= 1
 0 <= x96 <= 1
 0 <= x97 <= 1
 0 <= x98 <= 1
 0 <= x99 <= 1
 0 <= x100 <= 1
 0 <= x101 <= 1
 0 <= x102 <= 1
 0 <= x103 <= 1
 0 <= x104 <= 1
 0 <= x105 <= 1
 0 <= x106 <= 1
 0 <= x107 <= 1
 0 <= x108 <= 1
 0 <= x109 <= 1
 0 <= x110 <= 1
 0 <= x111 <= 1
 0 <= x112 <= 1
 0 <= x113 <= 1
 0 <= x114 <= 1
 0 <= x115 <= 1
 0 <= x116 <= 1
 0 <= x117 <= 1
 0 <= x118 <= 1
 0 <= x119 <= 1
 0 <= x120 <= 1
 0 <= x121 <= 1
 0 <= x122 <= 1
 0 <= x123 <= 1
 0 <= x124 <= 1
 0 <= x125 <= 1
 0 <= x126 <= 1
 0 <= x127 <= 1
 0 <= x128 <= 1
 0 <= x129 <= 1
 0 <= x130 <= 1
 0 <= x131 <= 1
 0 <= x132 <= 1
 0 <= x133 <= 1
 0 <= x134 <= 1
 0 <= x135 <= 1
 0 <= x136 <= 1
 0 <= x137 <= 1
 0 <= x138 <= 1
 0 <= x139 <= 1
 0 <= x140 <= 1
 0 <= x141 <= 1
 0 <= x142 <= 1
 0 <= x143 <= 1
 0 <= x144 <= 1
 0 <= x145 <= 1
 0 <= x146 <= 1
 0 <= x147 <= 1
 0 <= x148 <= 1
 0 <= x149 <= 1
 0 <= x150 <= 1
 0 <= x151 <= 1
 0 <= x152 <= 1
 0 <= x153 <= 1
 0 <= x154 <= 1
 0 <= x155 <= 1
 0 <= x156 <= 1
 0 <= x157 <= 1
 0 <= x158 <= 1
 0 <= x159 <= 1
 0 <= x160 <= 1
 0 <= x161 <= 1
 0 <= x162 <= 1
 0 <= x163 <= 1
 0 <= x164 <= 1
 0 <= x165 <= 1
 0 <= x166 <= 1
 0 <= x167 <= 1
 0 <= x168 <= 1
 0 <= x169 <= 1
 0 <= x170 <= 1
 0 <= x171 <= 1
 0 <= x172 <= 1
 0 <= x173 <= 1
 0 <= x174 <= 1
 0 <= x175 <= 1
 0 <= x176 <= 1
 0 <= x177 <= 1
 0 <= x178 <= 1
 0 <= x179 <= 1
 0 <= x180 <= 1
 0 <= x181 <= 1
 0 <= x182 <= 1
 0 <= x183 <= 1
 0 <= x184 <= 1
 0 <= x185 <= 1
 0 <= x186 <= 1
 0 <= x187 <= 1
 0 <= x188 <= 1
 0 <= x189 <= 1
 0 <= x190 <= 1
 0 <= x191 <= 1
 0 <= x192 <= 1
 0 <= x193 <= 1
 0 <= x194 <= 1
 0 <= x195 <= 1
 0 <= x196 <= 1
 0 <= x197 <= 1
 0 <= x198 <= 1
 0 <= x199 <= 1
 0 <= x200 <= 1
Binaries
 x1  x2  x3  x4  x5  x6  x7  x8  x9  x10  x11  x12  x13  x14  x15  x16  x17 
 x18  x19  x20  x21  x22  x23  x24  x25  x26  x27  x28  x29  x30  x31  x32 
 x33  x34  x35  x36  x37  x38  x39  x40  x41  x42  x43  x44  x45  x46  x47 
 x48  x49  x50  x51  x52  x53  x54  x55  x56  x57  x58  x59  x60  x61  x62 
 x63  x64  x65  x66  x67  x68  x69  x70  x71  x72  x73  x74  x75  x76  x77 
 x78  x79  x80  x81  x82  x83  x84  x85  x86  x87  x88  x89  x90  x91  x92 
 x93  x94  x95  x96  x97  x98  x99  x100  x101  x102  x103  x104  x105  x106 
 x107  x108  x109  x110  x111  x112  x113  x114  x115  x116  x117  x118  x119 
 x120  x121  x122  x123  x124  x125  x126  x127  x128  x129  x130  x131  x132 
 x133  x134  x135  x136  x137  x138  x139  x140  x141  x142  x143  x144  x145 
 x146  x147  x148  x149  x150  x151  x152  x153  x154  x155  x156  x157  x158 
 x159  x160  x161  x162  x163  x164  x165  x166  x167  x168  x169  x170  x171 
 x172  x173  x174  x175  x176  x177  x178  x179  x180  x181  x182  x183  x184 
 x185  x186  x187  x188  x189  x190  x191  x192  x193  x194  x195  x196  x197 
 x198  x199  x200 
End
